sifdecoder -A pc64.lnx.gfo -st   HIE1372D

 Problem name: HIE1372D

 Double precision version will be formed

 The objective function uses 2 linear groups
 
 There are 525 linear equality constraints
 
 There are 118 variables bounded only from above 
 There are 519 variables bounded from below and above 
 
 
 File successfully decoded
 CUTEST: tools (double precision version) compiled successfully
 CUTEst: ipopt (double precision version) compiled successfully

******************************************************************************
This program contains Ipopt, a library for large-scale nonlinear optimization.
 Ipopt is released as open source code under the Eclipse Public License (EPL).
         For more information visit http://projects.coin-or.org/Ipopt
******************************************************************************

This is Ipopt version trunk, running with linear solver ma57.

Number of nonzeros in equality constraint Jacobian...:     2401
Number of nonzeros in inequality constraint Jacobian.:        0
Number of nonzeros in Lagrangian Hessian.............:      637

Reallocating memory for MA57: lfact (223286)
Total number of variables............................:      637
                     variables with only lower bounds:        0
                variables with lower and upper bounds:      519
                     variables with only upper bounds:      118
Total number of equality constraints.................:      525
Total number of inequality constraints...............:        0
        inequality constraints with only lower bounds:        0
   inequality constraints with lower and upper bounds:        0
        inequality constraints with only upper bounds:        0

iter    objective    inf_pr   inf_du lg(mu)  ||d||  lg(rg) alpha_du alpha_pr  ls
   0  1.6255563e+02 2.28e+02 9.80e-01  -1.0 0.00e+00    -  0.00e+00 0.00e+00   0
   1  2.6290944e+02 4.46e+01 7.51e+00  -1.0 3.13e+02    -  9.59e-02 8.05e-01h  1
   2  3.1450386e+02 3.33e-08 1.56e+00  -1.0 6.40e+01    -  2.25e-01 1.00e+00h  1
   3  3.0765977e+02 9.22e-09 9.43e-01  -1.0 6.08e+00    -  3.99e-01 1.00e+00f  1
   4  2.8845261e+02 1.03e-09 3.35e-01  -1.0 2.89e+01    -  3.50e-01 1.00e+00f  1
   5  2.8870258e+02 2.85e-10 3.78e-03  -1.0 1.27e+00    -  9.90e-01 1.00e+00f  1
   6  2.8891472e+02 1.18e-10 4.37e-04  -1.0 2.42e-01    -  9.90e-01 1.00e+00f  1
   7  2.8891655e+02 1.64e-11 3.41e-05  -1.0 4.73e-03    -  9.94e-01 1.00e+00h  1
   8  2.8126803e+02 1.29e-09 2.00e-07  -1.7 2.18e+00    -  1.00e+00 1.00e+00f  1
   9  2.7882489e+02 5.57e-10 1.85e-03  -2.5 4.66e-01    -  1.00e+00 9.94e-01f  1
iter    objective    inf_pr   inf_du lg(mu)  ||d||  lg(rg) alpha_du alpha_pr  ls
  10  2.7819752e+02 1.77e-10 1.23e-02  -3.8 1.30e-01    -  1.00e+00 9.36e-01f  1
  11  2.7804250e+02 7.98e-11 3.30e-03  -3.8 1.04e-01    -  1.00e+00 9.67e-01f  1
  12  2.7801046e+02 3.20e-11 1.50e-09  -3.8 4.70e-02    -  1.00e+00 1.00e+00f  1
  13  2.7799098e+02 7.88e-12 6.89e-05  -5.7 2.68e-02    -  9.53e-01 9.51e-01f  1
  14  2.7798789e+02 2.63e-12 1.88e-11  -5.7 1.36e-02    -  1.00e+00 1.00e+00f  1
  15  2.7798740e+02 6.12e-12 1.87e-11  -5.7 4.58e-03    -  1.00e+00 1.00e+00f  1
  16  2.7798712e+02 5.93e-14 2.03e-05  -8.6 1.78e-03    -  9.90e-01 9.99e-01f  1
  17  2.7798711e+02 3.40e-12 2.51e-14  -8.6 4.45e-04    -  1.00e+00 1.00e+00f  1
  18  2.7798711e+02 2.74e-12 2.51e-14  -8.6 1.66e-04    -  1.00e+00 1.00e+00h  1
  19  2.7798711e+02 1.85e-13 2.51e-14  -8.6 5.85e-05    -  1.00e+00 1.00e+00h  1
In iteration 19, 1 Slack too small, adjusting variable bound
iter    objective    inf_pr   inf_du lg(mu)  ||d||  lg(rg) alpha_du alpha_pr  ls
  20  2.7798711e+02 2.35e-12 2.18e-03  -9.0 1.21e-05    -  1.00e+00 9.77e-01h  1
  21  2.7798711e+02 3.30e-12 9.12e-15  -9.0 7.74e-07    -  1.00e+00 1.00e+00h  1

Number of Iterations....: 21

                                   (scaled)                 (unscaled)
Objective...............:   2.7798711010581098e+02    2.7798711010581098e+02
Dual infeasibility......:   9.1177065897340981e-15    9.1177065897340981e-15
Constraint violation....:   3.3007264458831756e-12    3.3007264458831756e-12
Complementarity.........:   1.9244214121481295e-09    1.9244214121481295e-09
Overall NLP error.......:   1.9244214121481295e-09    1.9244214121481295e-09


Number of objective function evaluations             = 22
Number of objective gradient evaluations             = 22
Number of equality constraint evaluations            = 22
Number of inequality constraint evaluations          = 0
Number of equality constraint Jacobian evaluations   = 22
Number of inequality constraint Jacobian evaluations = 0
Number of Lagrangian Hessian evaluations             = 21
Total CPU secs in IPOPT (w/o function evaluations)   =      0.707
Total CPU secs in NLP function evaluations           =      0.020

EXIT: Optimal Solution Found.

************************ CUTEst statistics ************************


 Package used            :  IPOPT
 Problem                 :  HIE1372D  
 # variables             =             637
 # constraints           =             525
 # objective functions   =        0.4500000E+02
 # objective gradients   =        0.2300000E+02
 # objective Hessians    =        0.2200000E+02
 # Hessian-vector prdct  =        0.0000000E+00
 # constraints functions =        0.4600000E+02
 # constraints gradients =        0.2400000E+02
 # constraints Hessians  =        0.2200000E+02
 Exit code               =               0
 Final f                 =        2.7798711010581098D+02
 Bounds feasibility      =        9.6711247010716761D-07
 Set up time             =            0.06 seconds
 Solve time              =            1.41 seconds


******************************************************************

